language Essence 1.3

letting colouring be
        function(0 --> 0, 1 --> 1, 2 --> 3, 3 --> 6, 4 --> 2, 5 --> 7, 6 --> 14, 7 --> 8, 8 --> 11, 9 --> 15, 10 --> 23,
                 11 --> 19, 12 --> 21, 13 --> 22, 14 --> 5, 15 --> 20, 16 --> 24)
letting edgeID be
        function(0 --> 1, 1 --> 2, 2 --> 3, 3 --> 4, 4 --> 5, 5 --> 7, 6 --> 6, 7 --> 8, 8 --> 11, 9 --> 14, 10 --> 20,
                 11 --> 13, 12 --> 19, 13 --> 15, 14 --> 9, 15 --> 12, 16 --> 24, 17 --> 23, 18 --> 21, 19 --> 18,
                 20 --> 22, 21 --> 17, 22 --> 10, 23 --> 16)
